Version identifier: 20.1.0.0 | 2020-11-10 | 9bedb6d68
CPXPARAM_Threads                                 1
CPXPARAM_TimeLimit                               7200
CPXPARAM_MIP_Tolerances_MIPGap                   0
Generic callback                                 0x60
1 of 1 MIP starts provided solutions.
MIP start 'm1' defined initial solution with objective 2715.4196.
Tried aggregator 1 time.
Reduced MIP has 501001 rows, 500501 columns, and 1500500 nonzeros.
Reduced MIP has 500 binaries, 0 generals, 0 SOSs, and 0 indicators.
Presolve time = 0.45 sec. (400.65 ticks)
Probing time = 0.06 sec. (62.52 ticks)
Tried aggregator 1 time.
Reduced MIP has 501001 rows, 500501 columns, and 1500500 nonzeros.
Reduced MIP has 500 binaries, 0 generals, 0 SOSs, and 0 indicators.
Presolve time = 0.45 sec. (392.53 ticks)
Probing time = 0.06 sec. (62.52 ticks)
MIP emphasis: balance optimality and feasibility.
MIP search method: dynamic search.
Parallel mode: none, using 1 thread.
Root relaxation solution time = 0.17 sec. (193.05 ticks)

        Nodes                                         Cuts/
   Node  Left     Objective  IInf  Best Integer    Best Bound    ItCnt     Gap

*     0+    0                         2715.4196     5432.0000           100.04%
      0     0     2861.1358    67     2715.4196     5432.0000        0  100.04%
      0     2     2716.3857    80     2715.4196     2716.3850        0    0.04%
Elapsed time = 55.34 sec. (44095.68 ticks, tree = 0.01 MB, solutions = 1)
      1     3     2716.3229    70     2715.4196     2716.3844      177    0.04%
      2     4     2716.1882    74     2715.4196     2716.3844      344    0.04%
      3     5     2716.1247    61     2715.4196     2716.3844      500    0.04%
      4     6     2715.9936    52     2715.4196     2716.3844      545    0.04%
      5     7     2715.9712    35     2715.4196     2716.3844      587    0.04%
      7     9     2715.5171    12     2715.4196     2716.3844      745    0.04%
      9     9     2715.4859    15     2715.4196     2716.3844      843    0.04%
     10    10     2715.4445    13     2715.4196     2716.3844      885    0.04%
     11    11     2715.4282    18     2715.4196     2716.3844      917    0.04%
     15     9     2716.2576    41     2715.4196     2716.2574     1121    0.03%
Elapsed time = 97.65 sec. (51109.02 ticks, tree = 8.91 MB, solutions = 1)
     19    13     2715.9457    22     2715.4196     2716.2574     1390    0.03%
     20    14     2715.9393    34     2715.4196     2716.2574     1455    0.03%
*    23    14      integral     0     2715.4876     2716.2574     1800    0.03%
     26    15     2716.1199    45     2715.4876     2716.1869     2190    0.03%
     28    17     2716.0398    28     2715.4876     2716.1869     2324    0.03%
     31    20     2715.9044     9     2715.4876     2716.1869     2363    0.03%
*    32    18      integral     0     2715.9036     2716.1869     2368    0.01%
     34    19     2716.1579    69     2715.9036     2716.1866     2533    0.01%
     36    21     2716.0606    37     2715.9036     2716.1866     2805    0.01%
     38    23     2715.9719     6     2715.9036     2716.1866     3008    0.01%
*    40    17      integral     0     2715.9455     2716.1866     3044    0.01%
Elapsed time = 172.26 sec. (63002.21 ticks, tree = 6.70 MB, solutions = 4)
     42    19     2716.1470    33     2715.9455     2716.1812     3197    0.01%
*    48    19      integral     0     2715.9977     2716.1812     3320    0.01%
     48    18     2715.9977     0     2715.9977     2716.1812     3320    0.01%
     49    19     2716.1440    56     2715.9977     2716.1717     3624    0.01%
     50    20     2716.0410    18     2715.9977     2716.1717     3681    0.01%
     55    17        cutoff           2715.9977     2716.1566     3766    0.01%
     59    13        cutoff           2715.9977     2716.1196     3989    0.00%
     60    14     2716.0388    65     2715.9977     2716.1192     4090    0.00%
     64    12     2716.1011    46     2715.9977     2716.1054     4286    0.00%
     66    12        cutoff           2715.9977     2716.1054     4496    0.00%
*    70+   11                         2716.0000     2716.1054             0.00%
     70    13     2716.0508    16     2716.0000     2716.1006     4766    0.00%
Elapsed time = 236.75 sec. (75496.95 ticks, tree = 1.98 MB, solutions = 6)
     75    12     2716.0200    16     2716.0000     2716.0712     5052    0.00%
     80     7        cutoff           2716.0000     2716.0593     5179    0.00%
     85     4     2716.0068    13     2716.0000     2716.0259     5298    0.00%

User cuts applied:  3

Root node processing (before b&c):
  Real time             =   55.34 sec. (44098.78 ticks)
Sequential b&c:
  Real time             =  195.27 sec. (36323.73 ticks)
                          ------------
Total (root+branch&cut) =  250.61 sec. (80422.51 ticks)
@Parameters: 
is_S_cut                                true
is_add_all_yinF                         true
is_start_value                          true
is_usercut                              true
is_visualization                        false
uc_only_rootnode                        false

data                                    Qi
fn                                      data/Qi/instance_1000_500.csv
mode                                    ZLP
solver                                  cplex

p                                       50
r                                       50

EPS                                     1.0e-06
EPS_vio                                 1.0e-04
beta                                    0.10
gap                                     0.00
nodelimit                               Inf
timelimit                               7200.00


@PrintInfos
ItCnt: 5340
Current gap: 0.00 %
Termination Status: OPTIMAL
Primal Status: FEASIBLE_POINT
Solve Time: 250.61 sec
Objective Value: 2716.000000
Number of Nodes:     90

CutInfo: [phase] num / time (sec) 
ZLP             [phase1]     0 / 0.00 [rLC]     3 / 7.92 [rUC]     2 / 4.08 [sLC]     1 / 8.03 [sUC]     1 / 146.47 
OldSubmodular   [phase1]     0 / 0.00 [rLC]     0 / 0.00 [rUC]     0 / 0.00 [sLC]     0 / 0.00 [sUC]     0 / 0.00 
NewSubmodular   [phase1]     0 / 0.00 [rLC]     0 / 0.00 [rUC]     0 / 0.00 [sLC]     0 / 0.00 [sUC]     0 / 0.00 
PMP             [phase1]     0 / 0.00 [rLC]     4 / 4.42 [rUC]     2 / 2.04 [sLC]     6 / 5.88 [sUC]    99 / 98.28 
Separation Round: [phase1] 0  [rLC] 4  [rUC] 2  [sLC] 6  [sUC] 99
Root Best Bound 2716.384363
Root Best Integer: 2715.419616
Best Bound: 2716.000000
Best Integer: 2716.000000

